8.smt
; SMT-LIB file for the 8-Queens problem
(declare-const q_0_0 Bool)
(declare-const q_0_1 Bool)
(declare-const q_0_2 Bool)
(declare-const q_0_3 Bool)
(declare-const q_0_4 Bool)
(declare-const q_0_5 Bool)
(declare-const q_0_6 Bool)
(declare-const q_0_7 Bool)
(declare-const q_1_0 Bool)
(declare-const q_1_1 Bool)
(declare-const q_1_2 Bool)
(declare-const q_1_3 Bool)
(declare-const q_1_4 Bool)
(declare-const q_1_5 Bool)
(declare-const q_1_6 Bool)
(declare-const q_1_7 Bool)
(declare-const q_2_0 Bool)
(declare-const q_2_1 Bool)
(declare-const q_2_2 Bool)
(declare-const q_2_3 Bool)
(declare-const q_2_4 Bool)
(declare-const q_2_5 Bool)
(declare-const q_2_6 Bool)
(declare-const q_2_7 Bool)
(declare-const q_3_0 Bool)
(declare-const q_3_1 Bool)
(declare-const q_3_2 Bool)
(declare-const q_3_3 Bool)
(declare-const q_3_4 Bool)
(declare-const q_3_5 Bool)
(declare-const q_3_6 Bool)
(declare-const q_3_7 Bool)
(declare-const q_4_0 Bool)
(declare-const q_4_1 Bool)
(declare-const q_4_2 Bool)
(declare-const q_4_3 Bool)
(declare-const q_4_4 Bool)
(declare-const q_4_5 Bool)
(declare-const q_4_6 Bool)
(declare-const q_4_7 Bool)
(declare-const q_5_0 Bool)
(declare-const q_5_1 Bool)
(declare-const q_5_2 Bool)
(declare-const q_5_3 Bool)
(declare-const q_5_4 Bool)
(declare-const q_5_5 Bool)
(declare-const q_5_6 Bool)
(declare-const q_5_7 Bool)
(declare-const q_6_0 Bool)
(declare-const q_6_1 Bool)
(declare-const q_6_2 Bool)
(declare-const q_6_3 Bool)
(declare-const q_6_4 Bool)
(declare-const q_6_5 Bool)
(declare-const q_6_6 Bool)
(declare-const q_6_7 Bool)
(declare-const q_7_0 Bool)
(declare-const q_7_1 Bool)
(declare-const q_7_2 Bool)
(declare-const q_7_3 Bool)
(declare-const q_7_4 Bool)
(declare-const q_7_5 Bool)
(declare-const q_7_6 Bool)
(declare-const q_7_7 Bool)
(assert (= (+ (ite q_0_0 1 0) (ite q_0_1 1 0) (ite q_0_2 1 0) (ite q_0_3 1 0) (ite q_0_4 1 0) (ite q_0_5 1 0) (ite q_0_6 1 0) (ite q_0_7 1 0)) 1))
(assert (= (+ (ite q_1_0 1 0) (ite q_1_1 1 0) (ite q_1_2 1 0) (ite q_1_3 1 0) (ite q_1_4 1 0) (ite q_1_5 1 0) (ite q_1_6 1 0) (ite q_1_7 1 0)) 1))
(assert (= (+ (ite q_2_0 1 0) (ite q_2_1 1 0) (ite q_2_2 1 0) (ite q_2_3 1 0) (ite q_2_4 1 0) (ite q_2_5 1 0) (ite q_2_6 1 0) (ite q_2_7 1 0)) 1))
(assert (= (+ (ite q_3_0 1 0) (ite q_3_1 1 0) (ite q_3_2 1 0) (ite q_3_3 1 0) (ite q_3_4 1 0) (ite q_3_5 1 0) (ite q_3_6 1 0) (ite q_3_7 1 0)) 1))
(assert (= (+ (ite q_4_0 1 0) (ite q_4_1 1 0) (ite q_4_2 1 0) (ite q_4_3 1 0) (ite q_4_4 1 0) (ite q_4_5 1 0) (ite q_4_6 1 0) (ite q_4_7 1 0)) 1))
(assert (= (+ (ite q_5_0 1 0) (ite q_5_1 1 0) (ite q_5_2 1 0) (ite q_5_3 1 0) (ite q_5_4 1 0) (ite q_5_5 1 0) (ite q_5_6 1 0) (ite q_5_7 1 0)) 1))
(assert (= (+ (ite q_6_0 1 0) (ite q_6_1 1 0) (ite q_6_2 1 0) (ite q_6_3 1 0) (ite q_6_4 1 0) (ite q_6_5 1 0) (ite q_6_6 1 0) (ite q_6_7 1 0)) 1))
(assert (= (+ (ite q_7_0 1 0) (ite q_7_1 1 0) (ite q_7_2 1 0) (ite q_7_3 1 0) (ite q_7_4 1 0) (ite q_7_5 1 0) (ite q_7_6 1 0) (ite q_7_7 1 0)) 1))
(assert (= (+ (ite q_0_0 1 0) (ite q_1_0 1 0) (ite q_2_0 1 0) (ite q_3_0 1 0) (ite q_4_0 1 0) (ite q_5_0 1 0) (ite q_6_0 1 0) (ite q_7_0 1 0)) 1))
(assert (= (+ (ite q_0_1 1 0) (ite q_1_1 1 0) (ite q_2_1 1 0) (ite q_3_1 1 0) (ite q_4_1 1 0) (ite q_5_1 1 0) (ite q_6_1 1 0) (ite q_7_1 1 0)) 1))
(assert (= (+ (ite q_0_2 1 0) (ite q_1_2 1 0) (ite q_2_2 1 0) (ite q_3_2 1 0) (ite q_4_2 1 0) (ite q_5_2 1 0) (ite q_6_2 1 0) (ite q_7_2 1 0)) 1))
(assert (= (+ (ite q_0_3 1 0) (ite q_1_3 1 0) (ite q_2_3 1 0) (ite q_3_3 1 0) (ite q_4_3 1 0) (ite q_5_3 1 0) (ite q_6_3 1 0) (ite q_7_3 1 0)) 1))
(assert (= (+ (ite q_0_4 1 0) (ite q_1_4 1 0) (ite q_2_4 1 0) (ite q_3_4 1 0) (ite q_4_4 1 0) (ite q_5_4 1 0) (ite q_6_4 1 0) (ite q_7_4 1 0)) 1))
(assert (= (+ (ite q_0_5 1 0) (ite q_1_5 1 0) (ite q_2_5 1 0) (ite q_3_5 1 0) (ite q_4_5 1 0) (ite q_5_5 1 0) (ite q_6_5 1 0) (ite q_7_5 1 0)) 1))
(assert (= (+ (ite q_0_6 1 0) (ite q_1_6 1 0) (ite q_2_6 1 0) (ite q_3_6 1 0) (ite q_4_6 1 0) (ite q_5_6 1 0) (ite q_6_6 1 0) (ite q_7_6 1 0)) 1))
(assert (= (+ (ite q_0_7 1 0) (ite q_1_7 1 0) (ite q_2_7 1 0) (ite q_3_7 1 0) (ite q_4_7 1 0) (ite q_5_7 1 0) (ite q_6_7 1 0) (ite q_7_7 1 0)) 1))
(assert (not (and q_0_0 q_1_1)))
(assert (not (and q_0_0 q_2_2)))
(assert (not (and q_0_0 q_3_3)))
(assert (not (and q_0_0 q_4_4)))
(assert (not (and q_0_0 q_5_5)))
(assert (not (and q_0_0 q_6_6)))
(assert (not (and q_0_0 q_7_7)))
(assert (not (and q_0_1 q_1_2)))
(assert (not (and q_0_1 q_1_0)))
(assert (not (and q_0_1 q_2_3)))
(assert (not (and q_0_1 q_3_4)))
(assert (not (and q_0_1 q_4_5)))
(assert (not (and q_0_1 q_5_6)))
(assert (not (and q_0_1 q_6_7)))
(assert (not (and q_0_2 q_1_3)))
(assert (not (and q_0_2 q_1_1)))
(assert (not (and q_0_2 q_2_4)))
(assert (not (and q_0_2 q_2_0)))
(assert (not (and q_0_2 q_3_5)))
(assert (not (and q_0_2 q_4_6)))
(assert (not (and q_0_2 q_5_7)))
(assert (not (and q_0_3 q_1_4)))
(assert (not (and q_0_3 q_1_2)))
(assert (not (and q_0_3 q_2_5)))
(assert (not (and q_0_3 q_2_1)))
(assert (not (and q_0_3 q_3_6)))
(assert (not (and q_0_3 q_3_0)))
(assert (not (and q_0_3 q_4_7)))
(assert (not (and q_0_4 q_1_5)))
(assert (not (and q_0_4 q_1_3)))
(assert (not (and q_0_4 q_2_6)))
(assert (not (and q_0_4 q_2_2)))
(assert (not (and q_0_4 q_3_7)))
(assert (not (and q_0_4 q_3_1)))
(assert (not (and q_0_4 q_4_0)))
(assert (not (and q_0_5 q_1_6)))
(assert (not (and q_0_5 q_1_4)))
(assert (not (and q_0_5 q_2_7)))
(assert (not (and q_0_5 q_2_3)))
(assert (not (and q_0_5 q_3_2)))
(assert (not (and q_0_5 q_4_1)))
(assert (not (and q_0_5 q_5_0)))
(assert (not (and q_0_6 q_1_7)))
(assert (not (and q_0_6 q_1_5)))
(assert (not (and q_0_6 q_2_4)))
(assert (not (and q_0_6 q_3_3)))
(assert (not (and q_0_6 q_4_2)))
(assert (not (and q_0_6 q_5_1)))
(assert (not (and q_0_6 q_6_0)))
(assert (not (and q_0_7 q_1_6)))
(assert (not (and q_0_7 q_2_5)))
(assert (not (and q_0_7 q_3_4)))
(assert (not (and q_0_7 q_4_3)))
(assert (not (and q_0_7 q_5_2)))
(assert (not (and q_0_7 q_6_1)))
(assert (not (and q_0_7 q_7_0)))
(assert (not (and q_1_0 q_2_1)))
(assert (not (and q_1_0 q_3_2)))
(assert (not (and q_1_0 q_4_3)))
(assert (not (and q_1_0 q_5_4)))
(assert (not (and q_1_0 q_6_5)))
(assert (not (and q_1_0 q_7_6)))
(assert (not (and q_1_1 q_2_2)))
(assert (not (and q_1_1 q_2_0)))
(assert (not (and q_1_1 q_3_3)))
(assert (not (and q_1_1 q_4_4)))
(assert (not (and q_1_1 q_5_5)))
(assert (not (and q_1_1 q_6_6)))
(assert (not (and q_1_1 q_7_7)))
(assert (not (and q_1_2 q_2_3)))
(assert (not (and q_1_2 q_2_1)))
(assert (not (and q_1_2 q_3_4)))
(assert (not (and q_1_2 q_3_0)))
(assert (not (and q_1_2 q_4_5)))
(assert (not (and q_1_2 q_5_6)))
(assert (not (and q_1_2 q_6_7)))
(assert (not (and q_1_3 q_2_4)))
(assert (not (and q_1_3 q_2_2)))
(assert (not (and q_1_3 q_3_5)))
(assert (not (and q_1_3 q_3_1)))
(assert (not (and q_1_3 q_4_6)))
(assert (not (and q_1_3 q_4_0)))
(assert (not (and q_1_3 q_5_7)))
(assert (not (and q_1_4 q_2_5)))
(assert (not (and q_1_4 q_2_3)))
(assert (not (and q_1_4 q_3_6)))
(assert (not (and q_1_4 q_3_2)))
(assert (not (and q_1_4 q_4_7)))
(assert (not (and q_1_4 q_4_1)))
(assert (not (and q_1_4 q_5_0)))
(assert (not (and q_1_5 q_2_6)))
(assert (not (and q_1_5 q_2_4)))
(assert (not (and q_1_5 q_3_7)))
(assert (not (and q_1_5 q_3_3)))
(assert (not (and q_1_5 q_4_2)))
(assert (not (and q_1_5 q_5_1)))
(assert (not (and q_1_5 q_6_0)))
(assert (not (and q_1_6 q_2_7)))
(assert (not (and q_1_6 q_2_5)))
(assert (not (and q_1_6 q_3_4)))
(assert (not (and q_1_6 q_4_3)))
(assert (not (and q_1_6 q_5_2)))
(assert (not (and q_1_6 q_6_1)))
(assert (not (and q_1_6 q_7_0)))
(assert (not (and q_1_7 q_2_6)))
(assert (not (and q_1_7 q_3_5)))
(assert (not (and q_1_7 q_4_4)))
(assert (not (and q_1_7 q_5_3)))
(assert (not (and q_1_7 q_6_2)))
(assert (not (and q_1_7 q_7_1)))
(assert (not (and q_2_0 q_3_1)))
(assert (not (and q_2_0 q_4_2)))
(assert (not (and q_2_0 q_5_3)))
(assert (not (and q_2_0 q_6_4)))
(assert (not (and q_2_0 q_7_5)))
(assert (not (and q_2_1 q_3_2)))
(assert (not (and q_2_1 q_3_0)))
(assert (not (and q_2_1 q_4_3)))
(assert (not (and q_2_1 q_5_4)))
(assert (not (and q_2_1 q_6_5)))
(assert (not (and q_2_1 q_7_6)))
(assert (not (and q_2_2 q_3_3)))
(assert (not (and q_2_2 q_3_1)))
(assert (not (and q_2_2 q_4_4)))
(assert (not (and q_2_2 q_4_0)))
(assert (not (and q_2_2 q_5_5)))
(assert (not (and q_2_2 q_6_6)))
(assert (not (and q_2_2 q_7_7)))
(assert (not (and q_2_3 q_3_4)))
(assert (not (and q_2_3 q_3_2)))
(assert (not (and q_2_3 q_4_5)))
(assert (not (and q_2_3 q_4_1)))
(assert (not (and q_2_3 q_5_6)))
(assert (not (and q_2_3 q_5_0)))
(assert (not (and q_2_3 q_6_7)))
(assert (not (and q_2_4 q_3_5)))
(assert (not (and q_2_4 q_3_3)))
(assert (not (and q_2_4 q_4_6)))
(assert (not (and q_2_4 q_4_2)))
(assert (not (and q_2_4 q_5_7)))
(assert (not (and q_2_4 q_5_1)))
(assert (not (and q_2_4 q_6_0)))
(assert (not (and q_2_5 q_3_6)))
(assert (not (and q_2_5 q_3_4)))
(assert (not (and q_2_5 q_4_7)))
(assert (not (and q_2_5 q_4_3)))
(assert (not (and q_2_5 q_5_2)))
(assert (not (and q_2_5 q_6_1)))
(assert (not (and q_2_5 q_7_0)))
(assert (not (and q_2_6 q_3_7)))
(assert (not (and q_2_6 q_3_5)))
(assert (not (and q_2_6 q_4_4)))
(assert (not (and q_2_6 q_5_3)))
(assert (not (and q_2_6 q_6_2)))
(assert (not (and q_2_6 q_7_1)))
(assert (not (and q_2_7 q_3_6)))
(assert (not (and q_2_7 q_4_5)))
(assert (not (and q_2_7 q_5_4)))
(assert (not (and q_2_7 q_6_3)))
(assert (not (and q_2_7 q_7_2)))
(assert (not (and q_3_0 q_4_1)))
(assert (not (and q_3_0 q_5_2)))
(assert (not (and q_3_0 q_6_3)))
(assert (not (and q_3_0 q_7_4)))
(assert (not (and q_3_1 q_4_2)))
(assert (not (and q_3_1 q_4_0)))
(assert (not (and q_3_1 q_5_3)))
(assert (not (and q_3_1 q_6_4)))
(assert (not (and q_3_1 q_7_5)))
(assert (not (and q_3_2 q_4_3)))
(assert (not (and q_3_2 q_4_1)))
(assert (not (and q_3_2 q_5_4)))
(assert (not (and q_3_2 q_5_0)))
(assert (not (and q_3_2 q_6_5)))
(assert (not (and q_3_2 q_7_6)))
(assert (not (and q_3_3 q_4_4)))
(assert (not (and q_3_3 q_4_2)))
(assert (not (and q_3_3 q_5_5)))
(assert (not (and q_3_3 q_5_1)))
(assert (not (and q_3_3 q_6_6)))
(assert (not (and q_3_3 q_6_0)))
(assert (not (and q_3_3 q_7_7)))
(assert (not (and q_3_4 q_4_5)))
(assert (not (and q_3_4 q_4_3)))
(assert (not (and q_3_4 q_5_6)))
(assert (not (and q_3_4 q_5_2)))
(assert (not (and q_3_4 q_6_7)))
(assert (not (and q_3_4 q_6_1)))
(assert (not (and q_3_4 q_7_0)))
(assert (not (and q_3_5 q_4_6)))
(assert (not (and q_3_5 q_4_4)))
(assert (not (and q_3_5 q_5_7)))
(assert (not (and q_3_5 q_5_3)))
(assert (not (and q_3_5 q_6_2)))
(assert (not (and q_3_5 q_7_1)))
(assert (not (and q_3_6 q_4_7)))
(assert (not (and q_3_6 q_4_5)))
(assert (not (and q_3_6 q_5_4)))
(assert (not (and q_3_6 q_6_3)))
(assert (not (and q_3_6 q_7_2)))
(assert (not (and q_3_7 q_4_6)))
(assert (not (and q_3_7 q_5_5)))
(assert (not (and q_3_7 q_6_4)))
(assert (not (and q_3_7 q_7_3)))
(assert (not (and q_4_0 q_5_1)))
(assert (not (and q_4_0 q_6_2)))
(assert (not (and q_4_0 q_7_3)))
(assert (not (and q_4_1 q_5_2)))
(assert (not (and q_4_1 q_5_0)))
(assert (not (and q_4_1 q_6_3)))
(assert (not (and q_4_1 q_7_4)))
(assert (not (and q_4_2 q_5_3)))
(assert (not (and q_4_2 q_5_1)))
(assert (not (and q_4_2 q_6_4)))
(assert (not (and q_4_2 q_6_0)))
(assert (not (and q_4_2 q_7_5)))
(assert (not (and q_4_3 q_5_4)))
(assert (not (and q_4_3 q_5_2)))
(assert (not (and q_4_3 q_6_5)))
(assert (not (and q_4_3 q_6_1)))
(assert (not (and q_4_3 q_7_6)))
(assert (not (and q_4_3 q_7_0)))
(assert (not (and q_4_4 q_5_5)))
(assert (not (and q_4_4 q_5_3)))
(assert (not (and q_4_4 q_6_6)))
(assert (not (and q_4_4 q_6_2)))
(assert (not (and q_4_4 q_7_7)))
(assert (not (and q_4_4 q_7_1)))
(assert (not (and q_4_5 q_5_6)))
(assert (not (and q_4_5 q_5_4)))
(assert (not (and q_4_5 q_6_7)))
(assert (not (and q_4_5 q_6_3)))
(assert (not (and q_4_5 q_7_2)))
(assert (not (and q_4_6 q_5_7)))
(assert (not (and q_4_6 q_5_5)))
(assert (not (and q_4_6 q_6_4)))
(assert (not (and q_4_6 q_7_3)))
(assert (not (and q_4_7 q_5_6)))
(assert (not (and q_4_7 q_6_5)))
(assert (not (and q_4_7 q_7_4)))
(assert (not (and q_5_0 q_6_1)))
(assert (not (and q_5_0 q_7_2)))
(assert (not (and q_5_1 q_6_2)))
(assert (not (and q_5_1 q_6_0)))
(assert (not (and q_5_1 q_7_3)))
(assert (not (and q_5_2 q_6_3)))
(assert (not (and q_5_2 q_6_1)))
(assert (not (and q_5_2 q_7_4)))
(assert (not (and q_5_2 q_7_0)))
(assert (not (and q_5_3 q_6_4)))
(assert (not (and q_5_3 q_6_2)))
(assert (not (and q_5_3 q_7_5)))
(assert (not (and q_5_3 q_7_1)))
(assert (not (and q_5_4 q_6_5)))
(assert (not (and q_5_4 q_6_3)))
(assert (not (and q_5_4 q_7_6)))
(assert (not (and q_5_4 q_7_2)))
(assert (not (and q_5_5 q_6_6)))
(assert (not (and q_5_5 q_6_4)))
(assert (not (and q_5_5 q_7_7)))
(assert (not (and q_5_5 q_7_3)))
(assert (not (and q_5_6 q_6_7)))
(assert (not (and q_5_6 q_6_5)))
(assert (not (and q_5_6 q_7_4)))
(assert (not (and q_5_7 q_6_6)))
(assert (not (and q_5_7 q_7_5)))
(assert (not (and q_6_0 q_7_1)))
(assert (not (and q_6_1 q_7_2)))
(assert (not (and q_6_1 q_7_0)))
(assert (not (and q_6_2 q_7_3)))
(assert (not (and q_6_2 q_7_1)))
(assert (not (and q_6_3 q_7_4)))
(assert (not (and q_6_3 q_7_2)))
(assert (not (and q_6_4 q_7_5)))
(assert (not (and q_6_4 q_7_3)))
(assert (not (and q_6_5 q_7_6)))
(assert (not (and q_6_5 q_7_4)))
(assert (not (and q_6_6 q_7_7)))
(assert (not (and q_6_6 q_7_5)))
(assert (not (and q_6_7 q_7_6)))
(check-sat)
(get-value (q_0_0))
(get-value (q_0_1))
(get-value (q_0_2))
(get-value (q_0_3))
(get-value (q_0_4))
(get-value (q_0_5))
(get-value (q_0_6))
(get-value (q_0_7))
(get-value (q_1_0))
(get-value (q_1_1))
(get-value (q_1_2))
(get-value (q_1_3))
(get-value (q_1_4))
(get-value (q_1_5))
(get-value (q_1_6))
(get-value (q_1_7))
(get-value (q_2_0))
(get-value (q_2_1))
(get-value (q_2_2))
(get-value (q_2_3))
(get-value (q_2_4))
(get-value (q_2_5))
(get-value (q_2_6))
(get-value (q_2_7))
(get-value (q_3_0))
(get-value (q_3_1))
(get-value (q_3_2))
(get-value (q_3_3))
(get-value (q_3_4))
(get-value (q_3_5))
(get-value (q_3_6))
(get-value (q_3_7))
(get-value (q_4_0))
(get-value (q_4_1))
(get-value (q_4_2))
(get-value (q_4_3))
(get-value (q_4_4))
(get-value (q_4_5))
(get-value (q_4_6))
(get-value (q_4_7))
(get-value (q_5_0))
(get-value (q_5_1))
(get-value (q_5_2))
(get-value (q_5_3))
(get-value (q_5_4))
(get-value (q_5_5))
(get-value (q_5_6))
(get-value (q_5_7))
(get-value (q_6_0))
(get-value (q_6_1))
(get-value (q_6_2))
(get-value (q_6_3))
(get-value (q_6_4))
(get-value (q_6_5))
(get-value (q_6_6))
(get-value (q_6_7))
(get-value (q_7_0))
(get-value (q_7_1))
(get-value (q_7_2))
(get-value (q_7_3))
(get-value (q_7_4))
(get-value (q_7_5))
(get-value (q_7_6))
(get-value (q_7_7))
