Output/8.txt
sat
((q_0_0 true))
((q_0_1 false))
((q_0_2 false))
((q_0_3 false))
((q_0_4 false))
((q_0_5 false))
((q_0_6 false))
((q_0_7 false))
((q_1_0 false))
((q_1_1 false))
((q_1_2 false))
((q_1_3 false))
((q_1_4 false))
((q_1_5 false))
((q_1_6 true))
((q_1_7 false))
((q_2_0 false))
((q_2_1 false))
((q_2_2 false))
((q_2_3 false))
((q_2_4 true))
((q_2_5 false))
((q_2_6 false))
((q_2_7 false))
((q_3_0 false))
((q_3_1 false))
((q_3_2 false))
((q_3_3 false))
((q_3_4 false))
((q_3_5 false))
((q_3_6 false))
((q_3_7 true))
((q_4_0 false))
((q_4_1 true))
((q_4_2 false))
((q_4_3 false))
((q_4_4 false))
((q_4_5 false))
((q_4_6 false))
((q_4_7 false))
((q_5_0 false))
((q_5_1 false))
((q_5_2 false))
((q_5_3 true))
((q_5_4 false))
((q_5_5 false))
((q_5_6 false))
((q_5_7 false))
((q_6_0 false))
((q_6_1 false))
((q_6_2 false))
((q_6_3 false))
((q_6_4 false))
((q_6_5 true))
((q_6_6 false))
((q_6_7 false))
((q_7_0 false))
((q_7_1 false))
((q_7_2 true))
((q_7_3 false))
((q_7_4 false))
((q_7_5 false))
((q_7_6 false))
((q_7_7 false))
